100
32
14
30
12
25
30
20
17
4
9
12
7
7
20
12
30
6
4
2
2
17
19
3
1
2
6
2
18
1
6
1
3
1
1
17
1
2
17
1
6
16
18
1
1
1
1
4
1
1
9
1
2
1
1
19
2
2
3
1
1
3
2
1
1
17
2
1
3
2
9
1
2
1
3
2
1
20
2
1
1
2
1
19
1
17
2
1
1
3
5
7
1
2
4
1
3
1
3
1
1
5